0 62 64
1 66 65
2 55 65
3 66 69
4 69 72
5 48 68
6 57 68
7 55 67
8 59 63
9 52 60
10 34 59
11 53 55
12 37 54
13 51 52
14 45 52
15 49 54
16 42 51
17 47 54
18 45 54
19 41 51
20 44 48
21 41 46
22 39 43
23 36 43
24 42 43
25 39 41
26 36 40
27 39 40
28 39 39
29 31 38
30 24 39
31 27 38
32 33 37
33 29 35
34 27 34
35 26 32
36 18 31
37 28 31
38 27 29
39 23 28
40 22 25
41 19 25
42 23 22
43 18 17
44 15 22
45 13 21
46 7 20
47 18 20
48 10 18
49 15 17
50 16 16
51 15 14
52 7 8
53 8 11
54 3 10
55 8 9
56 3 7
57 4 5
58 2 3
59 3 3
60 3 2
61 3 3
62 1 3
63 2 2
64 1 0
65 1 2
66 1 1

